nApps = 39
nRes = 6
nActs = 86
nNetworks = 4

assignmentToResources = [1,1,1,1,1,1,1,2,1,2,1,1,1,1,2,1,2,1,1,2,2,2,2,2,2,2,1,2,2,2,3,3,3,3,3,3,3,3,3,3,3,3,3,4,4,3,3,3,4,4,4,5,3,6,3,6,4,5,4,5,4,5,4,5,4,5,6,6,6,6,6,6,6,6,6,6,6,6,6,5,5,6,6,6,5,5];

processingTimes = [120,136,104,88,64,128,128,104,48,144,152,96,80,112,40,168,72,120,120,136,128,136,112,56,40,152,112,96,168,128,3,3,3,8,500,500,4,3,4,4,150,3,150,4,3,3,500,3,4,3,500,500,500,500,500,500,500,500,500,500,3,3,23,23,9,9,3,3,3,8,500,500,4,3,4,4,150,3,150,4,3,3,500,3,4,3];

periods = [10000,10000,10000,10000,10000,10000,10000,10000,10000,10000,1000,10000,1000,10000,10000,10000,10000,10000,5000,10000,10000,1000,10000,10000,10000,1000,2000,10000,10000,10000,10000,10000,10000,10000,10000,10000,10000,10000,10000,1000,1000,1000,1000,10000,10000,10000,5000,5000,10000,1000,10000,10000,10000,10000,10000,10000,10000,10000,10000,10000,10000,10000,10000,10000,1000,1000,10000,10000,10000,10000,10000,10000,10000,10000,10000,1000,1000,1000,1000,10000,10000,10000,5000,5000,10000,1000];

assignmentToClusters = [1,2,3,4,5,6,7,2,2,3,8,9,10,11,6,12,6,3,13,7,5,8,14,15,16,8,17,18,2,19,20,21,22,23,24,25,26,27,28,29,30,31,32,33,34,35,36,37,38,39,2,2,2,2,3,3,3,3,5,5,6,6,7,7,8,8,20,21,22,23,24,25,26,27,28,29,30,31,32,33,34,35,36,37,38,39];

precedenceAdjList = [[],[51],[],[],[59],[61],[63],[28],[],[55],[65],[],[],[],[16],[],[],[57],[],[],[],[25],[],[],[],[],[],[],[53],[],[],[],[],[],[],[],[],[],[],[],[],[],[],[],[],[],[],[],[],[],[7],[50],[8],[52],[2],[54],[9],[56],[20],[58],[14],[60],[19],[62],[21],[64],[30],[31],[32],[33],[34],[35],[36],[37],[38],[39],[40],[41],[42],[43],[44],[45],[46],[47],[48],[49]];